words_hard_train/1010.qaiger
aag 59 16 0 1 43
2
4
8
12
16
20
24
32
38
46
58
66
70
72
86
98
119
6 3 5
10 6 9
14 10 13
18 14 17
22 18 21
26 22 25
28 23 24
30 27 29
34 31 32
36 18 20
40 36 38
42 19 20
44 43 23
48 45 46
50 41 49
52 50 30
54 11 12
56 55 15
60 57 59
62 15 16
64 61 63
68 4 66
74 70 72
76 74 2
78 69 77
80 2 4
82 79 81
84 81 9
88 85 86
90 83 89
92 7 8
94 91 93
96 93 13
100 97 98
102 95 101
104 102 56
106 64 105
108 106 19
110 62 38
112 109 111
114 113 21
116 52 115
118 35 117
i0 1 x2[1]
i1 1 x2[2]
i2 1 x2[3]
i3 1 x2[4]
i4 1 x2[5]
i5 1 x2[6]
i6 1 x2[7]
i7 2 y2[7]
i8 2 y2[5]
i9 2 y2[6]
i10 2 y2[4]
i11 2 y2[1]
i12 1 x2[0]
i13 2 y2[0]
i14 2 y2[2]
i15 2 y2[3]
o0 bv[0]
c
simplified
  >=
    xor
      2 y2
      add
        1 x2
        invert
          1
    2 y2
