words_hard_train/1010.qaiger.qdimacs
p cnf 59 130
a 1 2 35 4 6 8 10 12 0
e 3 5 7 9 11 13 14 15 16 17 18 19 20 21 22 23 24 25 26 27 28 29 30 31 32 33 34 36 37 38 39 40 41 42 43 44 45 46 47 48 49 50 51 52 53 54 55 56 57 58 59 0
1 2 3 0
-1 -3 0
-2 -3 0
-3 4 5 0
3 -5 0
-4 -5 0
-5 6 7 0
5 -7 0
-6 -7 0
-7 8 9 0
7 -9 0
-8 -9 0
-9 10 11 0
9 -11 0
-10 -11 0
-11 12 13 0
11 -13 0
-12 -13 0
11 -12 14 0
-11 -14 0
12 -14 0
13 14 15 0
-13 -15 0
-14 -15 0
15 -16 17 0
-15 -17 0
16 -17 0
-9 -10 18 0
9 -18 0
10 -18 0
-18 -19 20 0
18 -20 0
19 -20 0
9 -10 21 0
-9 -21 0
10 -21 0
21 11 22 0
-21 -22 0
-11 -22 0
22 -23 24 0
-22 -24 0
23 -24 0
20 24 25 0
-20 -25 0
-24 -25 0
-25 -15 26 0
25 -26 0
15 -26 0
5 -6 27 0
-5 -27 0
6 -27 0
27 7 28 0
-27 -28 0
-7 -28 0
28 29 30 0
-28 -30 0
-29 -30 0
7 -8 31 0
-7 -31 0
8 -31 0
30 31 32 0
-30 -32 0
-31 -32 0
-2 -33 34 0
2 -34 0
33 -34 0
-35 -36 37 0
35 -37 0
36 -37 0
-37 -1 38 0
37 -38 0
1 -38 0
34 38 39 0
-34 -39 0
-38 -39 0
-1 -2 40 0
1 -40 0
2 -40 0
39 40 41 0
-39 -41 0
-40 -41 0
40 4 42 0
-40 -42 0
-4 -42 0
42 -43 44 0
-42 -44 0
43 -44 0
41 44 45 0
-41 -45 0
-44 -45 0
3 -4 46 0
-3 -46 0
4 -46 0
45 46 47 0
-45 -47 0
-46 -47 0
46 6 48 0
-46 -48 0
-6 -48 0
48 -49 50 0
-48 -50 0
49 -50 0
47 50 51 0
-47 -51 0
-50 -51 0
-51 -28 52 0
51 -52 0
28 -52 0
-32 52 53 0
32 -53 0
-52 -53 0
-53 9 54 0
53 -54 0
-9 -54 0
-31 -19 55 0
31 -55 0
19 -55 0
54 55 56 0
-54 -56 0
-55 -56 0
56 10 57 0
-56 -57 0
-10 -57 0
-26 57 58 0
26 -58 0
-57 -58 0
17 58 59 0
-17 -59 0
-58 -59 0
-59 0
